
Gurobi 9.1.2 (win64) logging started Tue Dec  7 10:39:05 2021

Gurobi Optimizer version 9.1.2 build v9.1.2rc0 (win64)
Thread count: 8 physical cores, 8 logical processors, using up to 8 threads
Optimize a model with 1 rows, 52 columns and 51 nonzeros
Model fingerprint: 0x90b4f3ba
Variable types: 1 continuous, 51 integer (51 binary)
Coefficient statistics:
  Matrix range     [1e+00, 1e+01]
  Objective range  [1e+00, 1e+00]
  Bounds range     [3e+00, 3e+00]
  RHS range        [1e+01, 1e+01]
Presolve time: 0.00s
Presolved: 1 rows, 52 columns, 51 nonzeros
Variable types: 1 continuous, 51 integer (51 binary)

Root simplex log...

Iteration    Objective       Primal Inf.    Dual Inf.      Time
       0   -3.3726449e+00   1.023471e-01   0.000000e+00     15s
       2   -3.3726449e+00   0.000000e+00   0.000000e+00     15s

Root relaxation: objective -3.372645e+00, 2 iterations, 0.00 seconds

    Nodes    |    Current Node    |     Objective Bounds      |     Work
 Expl Unexpl |  Obj  Depth IntInf | Incumbent    BestBd   Gap | It/Node Time

     0     0   -3.37264    0    3          -   -3.37264      -     -   15s
H    0     0                       0.8759617   -3.37264   485%     -   15s
H    0     0                       0.8420862   -3.37264   501%     -   15s
H    0     0                       0.6541578   -3.37264   616%     -   15s
H    0     0                       0.5929109   -3.37264   669%     -   15s
     0     0   -3.05481    0    4    0.59291   -3.05481   615%     -   15s
     0     0   -2.83404    0    6    0.59291   -2.83404   578%     -   16s
     0     0   -2.83275    0    7    0.59291   -2.83275   578%     -   16s
     0     0   -2.54227    0    6    0.59291   -2.54227   529%     -   16s
     0     0   -2.43887    0    5    0.59291   -2.43887   511%     -   16s
     0     0   -2.43341    0    6    0.59291   -2.43341   510%     -   16s
     0     0   -2.43341    0    7    0.59291   -2.43341   510%     -   16s
     0     0   -2.01562    0    5    0.59291   -2.01562   440%     -   16s
     0     0   -1.98796    0    6    0.59291   -1.98796   435%     -   16s
     0     0   -1.97003    0    5    0.59291   -1.97003   432%     -   16s
     0     0   -1.95138    0    5    0.59291   -1.95138   429%     -   16s
     0     0   -1.95138    0    6    0.59291   -1.95138   429%     -   16s
     0     0   -1.95138    0    6    0.59291   -1.95138   429%     -   16s
     0     2   -1.22640    0    6    0.59291   -1.22640   307%     -   16s

Cutting planes:
  MIR: 6
  StrongCG: 1
  Lazy constraints: 13

Explored 15 nodes (133 simplex iterations) in 16.30 seconds
Thread count was 8 (of 8 available processors)

Solution count 4: 0.592911 0.654158 0.842086 0.875962 

Optimal solution found (tolerance 1.00e-04)
Best objective 5.929108817475e-01, best bound 5.929108817475e-01, gap 0.0000%

User-callback calls 185, time in user-callback 20.03 sec
